5,1,2,1,8,2,5,2,3,2,3,3,8,3,12,2,12,3,7,4,12,5,13,5;3,1,4,2,14,1,14,2,5,3,2,3,5,4,4,4,4,5,7,3,15,2,15,3,14,4,13,4,6,5,15,5,10,5;4,1,15,1,13,2,12,1,13,3,14,3,1,2,6,2,8,4,9,4,9,5,8,5,7,5,11,5;8,1,1,1,6,1,2,2,10,3,7,1,4,3,9,3,2,4,6,3,11,3,10,4,15,4,11,4,3,5;13,1,9,1,10,1,10,2,9,2,11,1,11,2,7,2,5,5,1,3,1,4,1,5,12,4,6,4,3,4,2,5,14,5;
